NAME: tsp_271
COMMENT: Random TSP instance
TYPE: TSP
DIMENSION: 50
EDGE_WEIGHT_TYPE: EUC_2D
NODE_COORD_SECTION
1 920 318
2 584 364
3 123 92
4 643 540
5 256 393
6 249 123
7 437 672
8 139 596
9 155 38
10 834 458
11 200 401
12 265 314
13 371 416
14 559 832
15 408 460
16 648 495
17 655 539
18 61 564
19 824 15
20 804 997
21 925 419
22 748 192
23 329 221
24 167 206
25 73 435
26 554 503
27 111 907
28 808 940
29 409 883
30 221 312
31 105 389
32 516 722
33 963 819
34 332 72
35 925 849
36 254 465
37 70 807
38 366 794
39 74 936
40 337 497
41 160 797
42 647 753
43 690 701
44 172 615
45 370 859
46 534 236
47 833 161
48 575 483
49 960 382
50 452 262
